(declare-sort $$unsorted 0)
(declare-fun tptp.op ($$unsorted $$unsorted) $$unsorted)
(assert (forall ((X0 $$unsorted) (X1 $$unsorted) (X2 $$unsorted)) (= X0 (tptp.op X0 (tptp.op (tptp.op X1 X1) (tptp.op X2 X0))))))
(assert (not (forall ((X0 $$unsorted) (X1 $$unsorted) (X2 $$unsorted)) (let ((_let_1 (tptp.op X1 X0))) (= X0 (tptp.op X0 (tptp.op _let_1 _let_1)))))))
(set-info :filename Equation848_implies_Equation835)
(check-sat-assuming ( true ))
